/*********************************************
 * OPL 12.6.0.0 Data
 * Author: Adrian Rodriguez Bazaga, Pau Rodriguez Esmerats
 * Creation Date: 06/12/2017 at 23:02:56
 *********************************************/

nNurses=156;
maxConsec=2;
maxPresence=7;
maxHours=5;
minHours=1;
hours=24;
demand= [26 24 37 37 24 37 37 24 24 15 5 6 5 8 7 8 6 4 2 2 23 34 13 35  ];
